shifts = 6;
vehicles = 24;

% flatish demand with peak on Thursday and Friday
demand = array1d(WEEKDAYS, 
[ 
  6,   % MONDAY 
  6,   % TUESDAY
  6,   % WEDNESDAY
  8,   % THURSDAY
  8,   % FRIDAY
  3,   % SATURDAY
  0    % SUNDAY
]);
objectiveType = MIN_MAX_UNMET_DEMAND;
